\Problem name: compact

Minimize
OBJROW: C
Subject To
ord(0,1):  x(0,0) - x(0,1) >= 2
ord(0,2):  - x(0,0) + x(0,2) >= 5
ord(1,1):  - x(1,1) + x(1,2) >= 6
ord(1,2):  x(1,0) - x(1,2) >= 3
ord(2,1):  x(2,1) - x(2,2) >= 9
ord(2,2):  x(2,0) - x(2,1) >= 9
ord(3,1):  - x(3,0) + x(3,2) >= 6
ord(3,2):  x(3,1) - x(3,2) >= 1
ord(4,1):  x(4,0) - x(4,2) >= 3
ord(4,2):  - x(4,0) + x(4,1) >= 8
triangle2(0,1,0):  y(0,1,0) + y(1,0,0) = 1
triangle2(0,1,1):  y(0,1,1) + y(1,0,1) = 1
triangle2(0,1,2):  y(0,1,2) + y(1,0,2) = 1
triangle2(0,2,0):  y(0,2,0) + y(2,0,0) = 1
triangle2(0,2,1):  y(0,2,1) + y(2,0,1) = 1
triangle2(0,2,2):  y(0,2,2) + y(2,0,2) = 1
triangle2(0,3,0):  y(0,3,0) + y(3,0,0) = 1
triangle2(0,3,1):  y(0,3,1) + y(3,0,1) = 1
triangle2(0,3,2):  y(0,3,2) + y(3,0,2) = 1
triangle2(0,4,0):  y(0,4,0) + y(4,0,0) = 1
triangle2(0,4,1):  y(0,4,1) + y(4,0,1) = 1
triangle2(0,4,2):  y(0,4,2) + y(4,0,2) = 1
triangle2(1,2,0):  y(1,2,0) + y(2,1,0) = 1
triangle2(1,2,1):  y(1,2,1) + y(2,1,1) = 1
triangle2(1,2,2):  y(1,2,2) + y(2,1,2) = 1
triangle2(1,3,0):  y(1,3,0) + y(3,1,0) = 1
triangle2(1,3,1):  y(1,3,1) + y(3,1,1) = 1
triangle2(1,3,2):  y(1,3,2) + y(3,1,2) = 1
triangle2(1,4,0):  y(1,4,0) + y(4,1,0) = 1
triangle2(1,4,1):  y(1,4,1) + y(4,1,1) = 1
triangle2(1,4,2):  y(1,4,2) + y(4,1,2) = 1
triangle2(2,3,0):  y(2,3,0) + y(3,2,0) = 1
triangle2(2,3,1):  y(2,3,1) + y(3,2,1) = 1
triangle2(2,3,2):  y(2,3,2) + y(3,2,2) = 1
triangle2(2,4,0):  y(2,4,0) + y(4,2,0) = 1
triangle2(2,4,1):  y(2,4,1) + y(4,2,1) = 1
triangle2(2,4,2):  y(2,4,2) + y(4,2,2) = 1
triangle2(3,4,0):  y(3,4,0) + y(4,3,0) = 1
triangle2(3,4,1):  y(3,4,1) + y(4,3,1) = 1
triangle2(3,4,2):  y(3,4,2) + y(4,3,2) = 1
MCLinV(0,1,0):  x(0,0) - v(0,1,0) - x(1,0) = 4
MCLinV(1,0,0):  - x(0,0) - v(1,0,0) + x(1,0) = 5
MCLin1(0,1,0):  u(0,1,0) >= -0
MCLin2(0,1,0):  -69 y(1,0,0) - u(0,1,0) <= -0
MCLin3(0,1,0):  51 y(1,0,0) + v(0,1,0) - u(0,1,0) <= 51
MCLin4(0,1,0):  51 y(1,0,0) - u(0,1,0) >= -0
MCLin5(0,1,0):  -69 y(1,0,0) + v(0,1,0) - u(0,1,0) >= -69
MCLin6(1,0,0):  u(1,0,0) >= -0
MCLin7(1,0,0):  -60 y(0,1,0) - u(1,0,0) <= -0
MCLin8(1,0,0):  60 y(0,1,0) + v(1,0,0) - u(1,0,0) <= 60
MCLin9(1,0,0):  60 y(0,1,0) - u(1,0,0) >= -0
MCLin10(1,0,0):  -60 y(0,1,0) + v(1,0,0) - u(1,0,0) >= -60
MCLinV(0,1,1):  x(0,1) - v(0,1,1) - x(1,1) = 6
MCLinV(1,0,1):  - x(0,1) - v(1,0,1) + x(1,1) = 2
MCLin1(0,1,1):  u(0,1,1) >= -0
MCLin2(0,1,1):  -64 y(1,0,1) - u(0,1,1) <= -0
MCLin3(0,1,1):  56 y(1,0,1) + v(0,1,1) - u(0,1,1) <= 56
MCLin4(0,1,1):  56 y(1,0,1) - u(0,1,1) >= -0
MCLin5(0,1,1):  -64 y(1,0,1) + v(0,1,1) - u(0,1,1) >= -64
MCLin6(1,0,1):  u(1,0,1) >= -0
MCLin7(1,0,1):  -64 y(0,1,1) - u(1,0,1) <= -0
MCLin8(1,0,1):  56 y(0,1,1) + v(1,0,1) - u(1,0,1) <= 56
MCLin9(1,0,1):  56 y(0,1,1) - u(1,0,1) >= -0
MCLin10(1,0,1):  -64 y(0,1,1) + v(1,0,1) - u(1,0,1) >= -64
MCLinV(0,1,2):  x(0,2) - v(0,1,2) - x(1,2) = 3
MCLinV(1,0,2):  - x(0,2) - v(1,0,2) + x(1,2) = 2
MCLin1(0,1,2):  u(0,1,2) >= -0
MCLin2(0,1,2):  -60 y(1,0,2) - u(0,1,2) <= -0
MCLin3(0,1,2):  60 y(1,0,2) + v(0,1,2) - u(0,1,2) <= 60
MCLin4(0,1,2):  60 y(1,0,2) - u(0,1,2) >= -0
MCLin5(0,1,2):  -60 y(1,0,2) + v(0,1,2) - u(0,1,2) >= -60
MCLin6(1,0,2):  u(1,0,2) >= -0
MCLin7(1,0,2):  -65 y(0,1,2) - u(1,0,2) <= -0
MCLin8(1,0,2):  55 y(0,1,2) + v(1,0,2) - u(1,0,2) <= 55
MCLin9(1,0,2):  55 y(0,1,2) - u(1,0,2) >= -0
MCLin10(1,0,2):  -65 y(0,1,2) + v(1,0,2) - u(1,0,2) >= -65
MCLinV(0,2,0):  x(0,0) - v(0,2,0) - x(2,0) = 2
MCLinV(2,0,0):  - x(0,0) - v(2,0,0) + x(2,0) = 5
MCLin1(0,2,0):  u(0,2,0) >= -0
MCLin2(0,2,0):  -69 y(2,0,0) - u(0,2,0) <= -0
MCLin3(0,2,0):  44 y(2,0,0) + v(0,2,0) - u(0,2,0) <= 44
MCLin4(0,2,0):  44 y(2,0,0) - u(0,2,0) >= -0
MCLin5(0,2,0):  -69 y(2,0,0) + v(0,2,0) - u(0,2,0) >= -69
MCLin6(2,0,0):  u(2,0,0) >= -0
MCLin7(2,0,0):  -51 y(0,2,0) - u(2,0,0) <= -0
MCLin8(2,0,0):  62 y(0,2,0) + v(2,0,0) - u(2,0,0) <= 62
MCLin9(2,0,0):  62 y(0,2,0) - u(2,0,0) >= -0
MCLin10(2,0,0):  -51 y(0,2,0) + v(2,0,0) - u(2,0,0) >= -51
MCLinV(0,2,1):  x(0,1) - v(0,2,1) - x(2,1) = 9
MCLinV(2,0,1):  - x(0,1) - v(2,0,1) + x(2,1) = 2
MCLin1(0,2,1):  u(0,2,1) >= -0
MCLin2(0,2,1):  -69 y(2,0,1) - u(0,2,1) <= -0
MCLin3(0,2,1):  44 y(2,0,1) + v(0,2,1) - u(0,2,1) <= 44
MCLin4(0,2,1):  44 y(2,0,1) - u(0,2,1) >= -0
MCLin5(0,2,1):  -69 y(2,0,1) + v(0,2,1) - u(0,2,1) >= -69
MCLin6(2,0,1):  u(2,0,1) >= -0
MCLin7(2,0,1):  -55 y(0,2,1) - u(2,0,1) <= -0
MCLin8(2,0,1):  58 y(0,2,1) + v(2,0,1) - u(2,0,1) <= 58
MCLin9(2,0,1):  58 y(0,2,1) - u(2,0,1) >= -0
MCLin10(2,0,1):  -55 y(0,2,1) + v(2,0,1) - u(2,0,1) >= -55
MCLinV(0,2,2):  x(0,2) - v(0,2,2) - x(2,2) = 9
MCLinV(2,0,2):  - x(0,2) - v(2,0,2) + x(2,2) = 2
MCLin1(0,2,2):  u(0,2,2) >= -0
MCLin2(0,2,2):  -53 y(2,0,2) - u(0,2,2) <= -0
MCLin3(0,2,2):  60 y(2,0,2) + v(0,2,2) - u(0,2,2) <= 60
MCLin4(0,2,2):  60 y(2,0,2) - u(0,2,2) >= -0
MCLin5(0,2,2):  -53 y(2,0,2) + v(0,2,2) - u(0,2,2) >= -53
MCLin6(2,0,2):  u(2,0,2) >= -0
MCLin7(2,0,2):  -71 y(0,2,2) - u(2,0,2) <= -0
MCLin8(2,0,2):  42 y(0,2,2) + v(2,0,2) - u(2,0,2) <= 42
MCLin9(2,0,2):  42 y(0,2,2) - u(2,0,2) >= -0
MCLin10(2,0,2):  -71 y(0,2,2) + v(2,0,2) - u(2,0,2) >= -71
MCLinV(0,3,0):  x(0,0) - v(0,3,0) - x(3,0) = 6
MCLinV(3,0,0):  - x(0,0) - v(3,0,0) + x(3,0) = 5
MCLin1(0,3,0):  u(0,3,0) >= -0
MCLin2(0,3,0):  -58 y(3,0,0) - u(0,3,0) <= -0
MCLin3(0,3,0):  58 y(3,0,0) + v(0,3,0) - u(0,3,0) <= 58
MCLin4(0,3,0):  58 y(3,0,0) - u(0,3,0) >= -0
MCLin5(0,3,0):  -58 y(3,0,0) + v(0,3,0) - u(0,3,0) >= -58
MCLin6(3,0,0):  u(3,0,0) >= -0
MCLin7(3,0,0):  -69 y(0,3,0) - u(3,0,0) <= -0
MCLin8(3,0,0):  47 y(0,3,0) + v(3,0,0) - u(3,0,0) <= 47
MCLin9(3,0,0):  47 y(0,3,0) - u(3,0,0) >= -0
MCLin10(3,0,0):  -69 y(0,3,0) + v(3,0,0) - u(3,0,0) >= -69
MCLinV(0,3,1):  x(0,1) - v(0,3,1) - x(3,1) = 10
MCLinV(3,0,1):  - x(0,1) - v(3,0,1) + x(3,1) = 2
MCLin1(0,3,1):  u(0,3,1) >= -0
MCLin2(0,3,1):  -71 y(3,0,1) - u(0,3,1) <= -0
MCLin3(0,3,1):  45 y(3,0,1) + v(0,3,1) - u(0,3,1) <= 45
MCLin4(0,3,1):  45 y(3,0,1) - u(0,3,1) >= -0
MCLin5(0,3,1):  -71 y(3,0,1) + v(0,3,1) - u(0,3,1) >= -71
MCLin6(3,0,1):  u(3,0,1) >= -0
MCLin7(3,0,1):  -57 y(0,3,1) - u(3,0,1) <= -0
MCLin8(3,0,1):  59 y(0,3,1) + v(3,0,1) - u(3,0,1) <= 59
MCLin9(3,0,1):  59 y(0,3,1) - u(3,0,1) >= -0
MCLin10(3,0,1):  -57 y(0,3,1) + v(3,0,1) - u(3,0,1) >= -57
MCLinV(0,3,2):  x(0,2) - v(0,3,2) - x(3,2) = 1
MCLinV(3,0,2):  - x(0,2) - v(3,0,2) + x(3,2) = 2
MCLin1(0,3,2):  u(0,3,2) >= -0
MCLin2(0,3,2):  -54 y(3,0,2) - u(0,3,2) <= -0
MCLin3(0,3,2):  62 y(3,0,2) + v(0,3,2) - u(0,3,2) <= 62
MCLin4(0,3,2):  62 y(3,0,2) - u(0,3,2) >= -0
MCLin5(0,3,2):  -54 y(3,0,2) + v(0,3,2) - u(0,3,2) >= -54
MCLin6(3,0,2):  u(3,0,2) >= -0
MCLin7(3,0,2):  -65 y(0,3,2) - u(3,0,2) <= -0
MCLin8(3,0,2):  51 y(0,3,2) + v(3,0,2) - u(3,0,2) <= 51
MCLin9(3,0,2):  51 y(0,3,2) - u(3,0,2) >= -0
MCLin10(3,0,2):  -65 y(0,3,2) + v(3,0,2) - u(3,0,2) >= -65
MCLinV(0,4,0):  x(0,0) - v(0,4,0) - x(4,0) = 8
MCLinV(4,0,0):  - x(0,0) - v(4,0,0) + x(4,0) = 5
MCLin1(0,4,0):  u(0,4,0) >= -0
MCLin2(0,4,0):  -68 y(4,0,0) - u(0,4,0) <= -0
MCLin3(0,4,0):  53 y(4,0,0) + v(0,4,0) - u(0,4,0) <= 53
MCLin4(0,4,0):  53 y(4,0,0) - u(0,4,0) >= -0
MCLin5(0,4,0):  -68 y(4,0,0) + v(0,4,0) - u(0,4,0) >= -68
MCLin6(4,0,0):  u(4,0,0) >= -0
MCLin7(4,0,0):  -66 y(0,4,0) - u(4,0,0) <= -0
MCLin8(4,0,0):  55 y(0,4,0) + v(4,0,0) - u(4,0,0) <= 55
MCLin9(4,0,0):  55 y(0,4,0) - u(4,0,0) >= -0
MCLin10(4,0,0):  -66 y(0,4,0) + v(4,0,0) - u(4,0,0) >= -66
MCLinV(0,4,1):  x(0,1) - v(0,4,1) - x(4,1) = 1
MCLinV(4,0,1):  - x(0,1) - v(4,0,1) + x(4,1) = 2
MCLin1(0,4,1):  u(0,4,1) >= -0
MCLin2(0,4,1):  -71 y(4,0,1) - u(0,4,1) <= -0
MCLin3(0,4,1):  50 y(4,0,1) + v(0,4,1) - u(0,4,1) <= 50
MCLin4(0,4,1):  50 y(4,0,1) - u(0,4,1) >= -0
MCLin5(0,4,1):  -71 y(4,0,1) + v(0,4,1) - u(0,4,1) >= -71
MCLin6(4,0,1):  u(4,0,1) >= -0
MCLin7(4,0,1):  -53 y(0,4,1) - u(4,0,1) <= -0
MCLin8(4,0,1):  68 y(0,4,1) + v(4,0,1) - u(4,0,1) <= 68
MCLin9(4,0,1):  68 y(0,4,1) - u(4,0,1) >= -0
MCLin10(4,0,1):  -53 y(0,4,1) + v(4,0,1) - u(4,0,1) >= -53
MCLinV(0,4,2):  x(0,2) - v(0,4,2) - x(4,2) = 3
MCLinV(4,0,2):  - x(0,2) - v(4,0,2) + x(4,2) = 2
MCLin1(0,4,2):  u(0,4,2) >= -0
MCLin2(0,4,2):  -55 y(4,0,2) - u(0,4,2) <= -0
MCLin3(0,4,2):  66 y(4,0,2) + v(0,4,2) - u(0,4,2) <= 66
MCLin4(0,4,2):  66 y(4,0,2) - u(0,4,2) >= -0
MCLin5(0,4,2):  -55 y(4,0,2) + v(0,4,2) - u(0,4,2) >= -55
MCLin6(4,0,2):  u(4,0,2) >= -0
MCLin7(4,0,2):  -71 y(0,4,2) - u(4,0,2) <= -0
MCLin8(4,0,2):  50 y(0,4,2) + v(4,0,2) - u(4,0,2) <= 50
MCLin9(4,0,2):  50 y(0,4,2) - u(4,0,2) >= -0
MCLin10(4,0,2):  -71 y(0,4,2) + v(4,0,2) - u(4,0,2) >= -71
MCLinV(1,2,0):  x(1,0) - v(1,2,0) - x(2,0) = 2
MCLinV(2,1,0):  - x(1,0) - v(2,1,0) + x(2,0) = 4
MCLin1(1,2,0):  u(1,2,0) >= -0
MCLin2(1,2,0):  -62 y(2,1,0) - u(1,2,0) <= -0
MCLin3(1,2,0):  47 y(2,1,0) + v(1,2,0) - u(1,2,0) <= 47
MCLin4(1,2,0):  47 y(2,1,0) - u(1,2,0) >= -0
MCLin5(1,2,0):  -62 y(2,1,0) + v(1,2,0) - u(1,2,0) >= -62
MCLin6(2,1,0):  u(2,1,0) >= -0
MCLin7(2,1,0):  -53 y(1,2,0) - u(2,1,0) <= -0
MCLin8(2,1,0):  56 y(1,2,0) + v(2,1,0) - u(2,1,0) <= 56
MCLin9(2,1,0):  56 y(1,2,0) - u(2,1,0) >= -0
MCLin10(2,1,0):  -53 y(1,2,0) + v(2,1,0) - u(2,1,0) >= -53
MCLinV(1,2,1):  x(1,1) - v(1,2,1) - x(2,1) = 9
MCLinV(2,1,1):  - x(1,1) - v(2,1,1) + x(2,1) = 6
MCLin1(1,2,1):  u(1,2,1) >= -0
MCLin2(1,2,1):  -69 y(2,1,1) - u(1,2,1) <= -0
MCLin3(1,2,1):  40 y(2,1,1) + v(1,2,1) - u(1,2,1) <= 40
MCLin4(1,2,1):  40 y(2,1,1) - u(1,2,1) >= -0
MCLin5(1,2,1):  -69 y(2,1,1) + v(1,2,1) - u(1,2,1) >= -69
MCLin6(2,1,1):  u(2,1,1) >= -0
MCLin7(2,1,1):  -55 y(1,2,1) - u(2,1,1) <= -0
MCLin8(2,1,1):  54 y(1,2,1) + v(2,1,1) - u(2,1,1) <= 54
MCLin9(2,1,1):  54 y(1,2,1) - u(2,1,1) >= -0
MCLin10(2,1,1):  -55 y(1,2,1) + v(2,1,1) - u(2,1,1) >= -55
MCLinV(1,2,2):  x(1,2) - v(1,2,2) - x(2,2) = 9
MCLinV(2,1,2):  - x(1,2) - v(2,1,2) + x(2,2) = 3
MCLin1(1,2,2):  u(1,2,2) >= -0
MCLin2(1,2,2):  -54 y(2,1,2) - u(1,2,2) <= -0
MCLin3(1,2,2):  55 y(2,1,2) + v(1,2,2) - u(1,2,2) <= 55
MCLin4(1,2,2):  55 y(2,1,2) - u(1,2,2) >= -0
MCLin5(1,2,2):  -54 y(2,1,2) + v(1,2,2) - u(1,2,2) >= -54
MCLin6(2,1,2):  u(2,1,2) >= -0
MCLin7(2,1,2):  -67 y(1,2,2) - u(2,1,2) <= -0
MCLin8(2,1,2):  42 y(1,2,2) + v(2,1,2) - u(2,1,2) <= 42
MCLin9(2,1,2):  42 y(1,2,2) - u(2,1,2) >= -0
MCLin10(2,1,2):  -67 y(1,2,2) + v(2,1,2) - u(2,1,2) >= -67
MCLinV(1,3,0):  x(1,0) - v(1,3,0) - x(3,0) = 6
MCLinV(3,1,0):  - x(1,0) - v(3,1,0) + x(3,0) = 4
MCLin1(1,3,0):  u(1,3,0) >= -0
MCLin2(1,3,0):  -51 y(3,1,0) - u(1,3,0) <= -0
MCLin3(1,3,0):  61 y(3,1,0) + v(1,3,0) - u(1,3,0) <= 61
MCLin4(1,3,0):  61 y(3,1,0) - u(1,3,0) >= -0
MCLin5(1,3,0):  -51 y(3,1,0) + v(1,3,0) - u(1,3,0) >= -51
MCLin6(3,1,0):  u(3,1,0) >= -0
MCLin7(3,1,0):  -71 y(1,3,0) - u(3,1,0) <= -0
MCLin8(3,1,0):  41 y(1,3,0) + v(3,1,0) - u(3,1,0) <= 41
MCLin9(3,1,0):  41 y(1,3,0) - u(3,1,0) >= -0
MCLin10(3,1,0):  -71 y(1,3,0) + v(3,1,0) - u(3,1,0) >= -71
MCLinV(1,3,1):  x(1,1) - v(1,3,1) - x(3,1) = 10
MCLinV(3,1,1):  - x(1,1) - v(3,1,1) + x(3,1) = 6
MCLin1(1,3,1):  u(1,3,1) >= -0
MCLin2(1,3,1):  -71 y(3,1,1) - u(1,3,1) <= -0
MCLin3(1,3,1):  41 y(3,1,1) + v(1,3,1) - u(1,3,1) <= 41
MCLin4(1,3,1):  41 y(3,1,1) - u(1,3,1) >= -0
MCLin5(1,3,1):  -71 y(3,1,1) + v(1,3,1) - u(1,3,1) >= -71
MCLin6(3,1,1):  u(3,1,1) >= -0
MCLin7(3,1,1):  -57 y(1,3,1) - u(3,1,1) <= -0
MCLin8(3,1,1):  55 y(1,3,1) + v(3,1,1) - u(3,1,1) <= 55
MCLin9(3,1,1):  55 y(1,3,1) - u(3,1,1) >= -0
MCLin10(3,1,1):  -57 y(1,3,1) + v(3,1,1) - u(3,1,1) >= -57
MCLinV(1,3,2):  x(1,2) - v(1,3,2) - x(3,2) = 1
MCLinV(3,1,2):  - x(1,2) - v(3,1,2) + x(3,2) = 3
MCLin1(1,3,2):  u(1,3,2) >= -0
MCLin2(1,3,2):  -55 y(3,1,2) - u(1,3,2) <= -0
MCLin3(1,3,2):  57 y(3,1,2) + v(1,3,2) - u(1,3,2) <= 57
MCLin4(1,3,2):  57 y(3,1,2) - u(1,3,2) >= -0
MCLin5(1,3,2):  -55 y(3,1,2) + v(1,3,2) - u(1,3,2) >= -55
MCLin6(3,1,2):  u(3,1,2) >= -0
MCLin7(3,1,2):  -61 y(1,3,2) - u(3,1,2) <= -0
MCLin8(3,1,2):  51 y(1,3,2) + v(3,1,2) - u(3,1,2) <= 51
MCLin9(3,1,2):  51 y(1,3,2) - u(3,1,2) >= -0
MCLin10(3,1,2):  -61 y(1,3,2) + v(3,1,2) - u(3,1,2) >= -61
MCLinV(1,4,0):  x(1,0) - v(1,4,0) - x(4,0) = 8
MCLinV(4,1,0):  - x(1,0) - v(4,1,0) + x(4,0) = 4
MCLin1(1,4,0):  u(1,4,0) >= -0
MCLin2(1,4,0):  -61 y(4,1,0) - u(1,4,0) <= -0
MCLin3(1,4,0):  56 y(4,1,0) + v(1,4,0) - u(1,4,0) <= 56
MCLin4(1,4,0):  56 y(4,1,0) - u(1,4,0) >= -0
MCLin5(1,4,0):  -61 y(4,1,0) + v(1,4,0) - u(1,4,0) >= -61
MCLin6(4,1,0):  u(4,1,0) >= -0
MCLin7(4,1,0):  -68 y(1,4,0) - u(4,1,0) <= -0
MCLin8(4,1,0):  49 y(1,4,0) + v(4,1,0) - u(4,1,0) <= 49
MCLin9(4,1,0):  49 y(1,4,0) - u(4,1,0) >= -0
MCLin10(4,1,0):  -68 y(1,4,0) + v(4,1,0) - u(4,1,0) >= -68
MCLinV(1,4,1):  x(1,1) - v(1,4,1) - x(4,1) = 1
MCLinV(4,1,1):  - x(1,1) - v(4,1,1) + x(4,1) = 6
MCLin1(1,4,1):  u(1,4,1) >= -0
MCLin2(1,4,1):  -71 y(4,1,1) - u(1,4,1) <= -0
MCLin3(1,4,1):  46 y(4,1,1) + v(1,4,1) - u(1,4,1) <= 46
MCLin4(1,4,1):  46 y(4,1,1) - u(1,4,1) >= -0
MCLin5(1,4,1):  -71 y(4,1,1) + v(1,4,1) - u(1,4,1) >= -71
MCLin6(4,1,1):  u(4,1,1) >= -0
MCLin7(4,1,1):  -53 y(1,4,1) - u(4,1,1) <= -0
MCLin8(4,1,1):  64 y(1,4,1) + v(4,1,1) - u(4,1,1) <= 64
MCLin9(4,1,1):  64 y(1,4,1) - u(4,1,1) >= -0
MCLin10(4,1,1):  -53 y(1,4,1) + v(4,1,1) - u(4,1,1) >= -53
MCLinV(1,4,2):  x(1,2) - v(1,4,2) - x(4,2) = 3
MCLinV(4,1,2):  - x(1,2) - v(4,1,2) + x(4,2) = 3
MCLin1(1,4,2):  u(1,4,2) >= -0
MCLin2(1,4,2):  -56 y(4,1,2) - u(1,4,2) <= -0
MCLin3(1,4,2):  61 y(4,1,2) + v(1,4,2) - u(1,4,2) <= 61
MCLin4(1,4,2):  61 y(4,1,2) - u(1,4,2) >= -0
MCLin5(1,4,2):  -56 y(4,1,2) + v(1,4,2) - u(1,4,2) >= -56
MCLin6(4,1,2):  u(4,1,2) >= -0
MCLin7(4,1,2):  -67 y(1,4,2) - u(4,1,2) <= -0
MCLin8(4,1,2):  50 y(1,4,2) + v(4,1,2) - u(4,1,2) <= 50
MCLin9(4,1,2):  50 y(1,4,2) - u(4,1,2) >= -0
MCLin10(4,1,2):  -67 y(1,4,2) + v(4,1,2) - u(4,1,2) >= -67
MCLinV(2,3,0):  x(2,0) - v(2,3,0) - x(3,0) = 6
MCLinV(3,2,0):  - x(2,0) - v(3,2,0) + x(3,0) = 2
MCLin1(2,3,0):  u(2,3,0) >= -0
MCLin2(2,3,0):  -42 y(3,2,0) - u(2,3,0) <= -0
MCLin3(2,3,0):  63 y(3,2,0) + v(2,3,0) - u(2,3,0) <= 63
MCLin4(2,3,0):  63 y(3,2,0) - u(2,3,0) >= -0
MCLin5(2,3,0):  -42 y(3,2,0) + v(2,3,0) - u(2,3,0) >= -42
MCLin6(3,2,0):  u(3,2,0) >= -0
MCLin7(3,2,0):  -71 y(2,3,0) - u(3,2,0) <= -0
MCLin8(3,2,0):  34 y(2,3,0) + v(3,2,0) - u(3,2,0) <= 34
MCLin9(3,2,0):  34 y(2,3,0) - u(3,2,0) >= -0
MCLin10(3,2,0):  -71 y(2,3,0) + v(3,2,0) - u(3,2,0) >= -71
MCLinV(2,3,1):  x(2,1) - v(2,3,1) - x(3,1) = 10
MCLinV(3,2,1):  - x(2,1) - v(3,2,1) + x(3,1) = 9
MCLin1(2,3,1):  u(2,3,1) >= -0
MCLin2(2,3,1):  -62 y(3,2,1) - u(2,3,1) <= -0
MCLin3(2,3,1):  43 y(3,2,1) + v(2,3,1) - u(2,3,1) <= 43
MCLin4(2,3,1):  43 y(3,2,1) - u(2,3,1) >= -0
MCLin5(2,3,1):  -62 y(3,2,1) + v(2,3,1) - u(2,3,1) >= -62
MCLin6(3,2,1):  u(3,2,1) >= -0
MCLin7(3,2,1):  -62 y(2,3,1) - u(3,2,1) <= -0
MCLin8(3,2,1):  43 y(2,3,1) + v(3,2,1) - u(3,2,1) <= 43
MCLin9(3,2,1):  43 y(2,3,1) - u(3,2,1) >= -0
MCLin10(3,2,1):  -62 y(2,3,1) + v(3,2,1) - u(3,2,1) >= -62
MCLinV(2,3,2):  x(2,2) - v(2,3,2) - x(3,2) = 1
MCLinV(3,2,2):  - x(2,2) - v(3,2,2) + x(3,2) = 9
MCLin1(2,3,2):  u(2,3,2) >= -0
MCLin2(2,3,2):  -61 y(3,2,2) - u(2,3,2) <= -0
MCLin3(2,3,2):  44 y(3,2,2) + v(2,3,2) - u(2,3,2) <= 44
MCLin4(2,3,2):  44 y(3,2,2) - u(2,3,2) >= -0
MCLin5(2,3,2):  -61 y(3,2,2) + v(2,3,2) - u(2,3,2) >= -61
MCLin6(3,2,2):  u(3,2,2) >= -0
MCLin7(3,2,2):  -54 y(2,3,2) - u(3,2,2) <= -0
MCLin8(3,2,2):  51 y(2,3,2) + v(3,2,2) - u(3,2,2) <= 51
MCLin9(3,2,2):  51 y(2,3,2) - u(3,2,2) >= -0
MCLin10(3,2,2):  -54 y(2,3,2) + v(3,2,2) - u(3,2,2) >= -54
MCLinV(2,4,0):  x(2,0) - v(2,4,0) - x(4,0) = 8
MCLinV(4,2,0):  - x(2,0) - v(4,2,0) + x(4,0) = 2
MCLin1(2,4,0):  u(2,4,0) >= -0
MCLin2(2,4,0):  -52 y(4,2,0) - u(2,4,0) <= -0
MCLin3(2,4,0):  58 y(4,2,0) + v(2,4,0) - u(2,4,0) <= 58
MCLin4(2,4,0):  58 y(4,2,0) - u(2,4,0) >= -0
MCLin5(2,4,0):  -52 y(4,2,0) + v(2,4,0) - u(2,4,0) >= -52
MCLin6(4,2,0):  u(4,2,0) >= -0
MCLin7(4,2,0):  -68 y(2,4,0) - u(4,2,0) <= -0
MCLin8(4,2,0):  42 y(2,4,0) + v(4,2,0) - u(4,2,0) <= 42
MCLin9(4,2,0):  42 y(2,4,0) - u(4,2,0) >= -0
MCLin10(4,2,0):  -68 y(2,4,0) + v(4,2,0) - u(4,2,0) >= -68
MCLinV(2,4,1):  x(2,1) - v(2,4,1) - x(4,1) = 1
MCLinV(4,2,1):  - x(2,1) - v(4,2,1) + x(4,1) = 9
MCLin1(2,4,1):  u(2,4,1) >= -0
MCLin2(2,4,1):  -62 y(4,2,1) - u(2,4,1) <= -0
MCLin3(2,4,1):  48 y(4,2,1) + v(2,4,1) - u(2,4,1) <= 48
MCLin4(2,4,1):  48 y(4,2,1) - u(2,4,1) >= -0
MCLin5(2,4,1):  -62 y(4,2,1) + v(2,4,1) - u(2,4,1) >= -62
MCLin6(4,2,1):  u(4,2,1) >= -0
MCLin7(4,2,1):  -58 y(2,4,1) - u(4,2,1) <= -0
MCLin8(4,2,1):  52 y(2,4,1) + v(4,2,1) - u(4,2,1) <= 52
MCLin9(4,2,1):  52 y(2,4,1) - u(4,2,1) >= -0
MCLin10(4,2,1):  -58 y(2,4,1) + v(4,2,1) - u(4,2,1) >= -58
MCLinV(2,4,2):  x(2,2) - v(2,4,2) - x(4,2) = 3
MCLinV(4,2,2):  - x(2,2) - v(4,2,2) + x(4,2) = 9
MCLin1(2,4,2):  u(2,4,2) >= -0
MCLin2(2,4,2):  -62 y(4,2,2) - u(2,4,2) <= -0
MCLin3(2,4,2):  48 y(4,2,2) + v(2,4,2) - u(2,4,2) <= 48
MCLin4(2,4,2):  48 y(4,2,2) - u(2,4,2) >= -0
MCLin5(2,4,2):  -62 y(4,2,2) + v(2,4,2) - u(2,4,2) >= -62
MCLin6(4,2,2):  u(4,2,2) >= -0
MCLin7(4,2,2):  -60 y(2,4,2) - u(4,2,2) <= -0
MCLin8(4,2,2):  50 y(2,4,2) + v(4,2,2) - u(4,2,2) <= 50
MCLin9(4,2,2):  50 y(2,4,2) - u(4,2,2) >= -0
MCLin10(4,2,2):  -60 y(2,4,2) + v(4,2,2) - u(4,2,2) >= -60
MCLinV(3,4,0):  x(3,0) - v(3,4,0) - x(4,0) = 8
MCLinV(4,3,0):  - x(3,0) - v(4,3,0) + x(4,0) = 6
MCLin1(3,4,0):  u(3,4,0) >= -0
MCLin2(3,4,0):  -70 y(4,3,0) - u(3,4,0) <= -0
MCLin3(3,4,0):  43 y(4,3,0) + v(3,4,0) - u(3,4,0) <= 43
MCLin4(3,4,0):  43 y(4,3,0) - u(3,4,0) >= -0
MCLin5(3,4,0):  -70 y(4,3,0) + v(3,4,0) - u(3,4,0) >= -70
MCLin6(4,3,0):  u(4,3,0) >= -0
MCLin7(4,3,0):  -57 y(3,4,0) - u(4,3,0) <= -0
MCLin8(4,3,0):  56 y(3,4,0) + v(4,3,0) - u(4,3,0) <= 56
MCLin9(4,3,0):  56 y(3,4,0) - u(4,3,0) >= -0
MCLin10(4,3,0):  -57 y(3,4,0) + v(4,3,0) - u(4,3,0) >= -57
MCLinV(3,4,1):  x(3,1) - v(3,4,1) - x(4,1) = 1
MCLinV(4,3,1):  - x(3,1) - v(4,3,1) + x(4,1) = 10
MCLin1(3,4,1):  u(3,4,1) >= -0
MCLin2(3,4,1):  -64 y(4,3,1) - u(3,4,1) <= -0
MCLin3(3,4,1):  49 y(4,3,1) + v(3,4,1) - u(3,4,1) <= 49
MCLin4(3,4,1):  49 y(4,3,1) - u(3,4,1) >= -0
MCLin5(3,4,1):  -64 y(4,3,1) + v(3,4,1) - u(3,4,1) >= -64
MCLin6(4,3,1):  u(4,3,1) >= -0
MCLin7(4,3,1):  -60 y(3,4,1) - u(4,3,1) <= -0
MCLin8(4,3,1):  53 y(3,4,1) + v(4,3,1) - u(4,3,1) <= 53
MCLin9(4,3,1):  53 y(3,4,1) - u(4,3,1) >= -0
MCLin10(4,3,1):  -60 y(3,4,1) + v(4,3,1) - u(4,3,1) >= -60
MCLinV(3,4,2):  x(3,2) - v(3,4,2) - x(4,2) = 3
MCLinV(4,3,2):  - x(3,2) - v(4,3,2) + x(4,2) = 1
MCLin1(3,4,2):  u(3,4,2) >= -0
MCLin2(3,4,2):  -56 y(4,3,2) - u(3,4,2) <= -0
MCLin3(3,4,2):  57 y(4,3,2) + v(3,4,2) - u(3,4,2) <= 57
MCLin4(3,4,2):  57 y(4,3,2) - u(3,4,2) >= -0
MCLin5(3,4,2):  -56 y(4,3,2) + v(3,4,2) - u(3,4,2) >= -56
MCLin6(4,3,2):  u(4,3,2) >= -0
MCLin7(4,3,2):  -61 y(3,4,2) - u(4,3,2) <= -0
MCLin8(4,3,2):  52 y(3,4,2) + v(4,3,2) - u(4,3,2) <= 52
MCLin9(4,3,2):  52 y(3,4,2) - u(4,3,2) >= -0
MCLin10(4,3,2):  -61 y(3,4,2) + v(4,3,2) - u(4,3,2) >= -61
makespan(0):  C - x(0,2) >= 2
makespan(1):  C - x(1,0) >= 4
makespan(2):  C - x(2,0) >= 2
makespan(3):  C - x(3,1) >= 10
makespan(4):  C - x(4,1) >= 1
cut_clique_0(01234,0):  0.02227 x(0,0) + 0.01782 x(1,0) + 0.01475 x(3,0) + 0.05826 x(4,0) >= 1
cut_clique_0(0134,0):  0.02227 x(0,0) + 0.01782 x(1,0) + 0.01475 x(3,0) + 0.05826 x(4,0) >= 1
cut_clique_0(0124,0):  0.03210 x(0,0) + 0.02568 x(1,0) + 0.07865 x(4,0) >= 1
cut_clique_0(0123,0):  0.02247 x(0,0) + 0.07865 x(1,0) + 0.01901 x(3,0) >= 1
cut_clique_0(0234,0):  0.02155 x(0,0) + 0.02586 x(3,0) + 0.11638 x(4,0) >= 1
cut_clique_0(1234,0):  0.04545 x(3,0) + 0.16667 x(4,0) >= 1
cut_clique_0(014,0):  0.03210 x(0,0) + 0.02568 x(1,0) + 0.07865 x(4,0) >= 1
cut_clique_0(034,0):  0.02155 x(0,0) + 0.02586 x(3,0) + 0.11638 x(4,0) >= 1
cut_clique_0(013,0):  0.02247 x(0,0) + 0.07865 x(1,0) + 0.01901 x(3,0) >= 1
cut_clique_0(134,0):  0.04545 x(3,0) + 0.16667 x(4,0) >= 1
cut_clique_0(024,0):  0.05634 x(0,0) + 0.12676 x(4,0) >= 1
cut_clique_0(124,0):  0.08621 x(1,0) + 0.01724 x(4,0) >= 1
cut_clique_0(234,0):  0.04545 x(3,0) + 0.16667 x(4,0) >= 1
cut_clique_0(01234,1):  0.00314 x(0,1) + 0.00942 x(1,1) + 0.02538 x(2,1) + 0.02307 x(3,1) + 0.01747 x(4,1) >= 1
cut_clique_0(0234,1):  0.02980 x(2,1) + 0.02079 x(3,1) + 0.01871 x(4,1) >= 1
cut_clique_0(0123,1):  0.00369 x(0,1) + 0.01106 x(1,1) + 0.03880 x(2,1) + 0.03492 x(3,1) >= 1
cut_clique_0(1234,1):  0.02980 x(2,1) + 0.02079 x(3,1) + 0.01871 x(4,1) >= 1
cut_clique_0(0124,1):  0.05983 x(2,1) + 0.02564 x(4,1) >= 1
cut_clique_0(0134,1):  0.00687 x(0,1) + 0.02060 x(1,1) + 0.05243 x(3,1) + 0.02996 x(4,1) >= 1
cut_clique_0(234,1):  0.02980 x(2,1) + 0.02079 x(3,1) + 0.01871 x(4,1) >= 1
cut_clique_0(023,1):  0.04527 x(2,1) + 0.03292 x(3,1) >= 1
cut_clique_0(024,1):  0.05983 x(2,1) + 0.02564 x(4,1) >= 1
cut_clique_0(034,1):  0.04724 x(3,1) + 0.03937 x(4,1) >= 1
cut_clique_0(123,1):  0.04527 x(2,1) + 0.03292 x(3,1) >= 1
cut_clique_0(124,1):  0.05983 x(2,1) + 0.02564 x(4,1) >= 1
cut_clique_0(134,1):  0.04724 x(3,1) + 0.03937 x(4,1) >= 1
cut_clique_0(01234,2):  0.33333 x(2,2) + 0.11111 x(4,2) >= 1
cut_clique_0(1234,2):  0.33333 x(2,2) + 0.11111 x(4,2) >= 1
cut_clique_0(0123,2):  0.11111 x(1,2) + 0.03704 x(2,2) >= 1
cut_clique_0(0134,2):  0.11111 x(1,2) + 0.03704 x(3,2) >= 1
cut_clique_0(0124,2):  0.33333 x(2,2) + 0.11111 x(4,2) >= 1
cut_clique_0(0234,2):  0.33333 x(2,2) + 0.11111 x(4,2) >= 1
cut_clique_0(124,2):  0.33333 x(2,2) + 0.11111 x(4,2) >= 1
cut_clique_0(013,2):  0.11111 x(1,2) + 0.03704 x(3,2) >= 1
cut_clique_0(123,2):  0.11111 x(1,2) + 0.03704 x(2,2) >= 1
cut_clique_0(134,2):  0.11111 x(1,2) + 0.03704 x(3,2) >= 1
cut_clique_0(234,2):  0.33333 x(2,2) + 0.11111 x(4,2) >= 1
cut_clique_0(012,2):  0.11111 x(1,2) + 0.03704 x(2,2) >= 1
cut_clique_0(023,2):  0.04762 x(2,2) + 0.11111 x(3,2) >= 1
cut_clique_0(024,2):  0.33333 x(2,2) + 0.11111 x(4,2) >= 1
cut_clique_1(01234,0):  0.01628 x(0,0) + 0.02668 x(1,0) + 0.00651 x(2,0) + 0.01092 x(3,0) + 0.03060 x(4,0) >= 1
cut_clique_1(0134,0):  0.01961 x(0,0) + 0.03063 x(1,0) + 0.01299 x(3,0) + 0.03636 x(4,0) >= 1
cut_clique_1(01234,1):  0.00284 x(0,1) + 0.00284 x(1,1) + 0.03517 x(2,1) + 0.03197 x(3,1) + 0.00391 x(4,1) >= 1
cut_clique_1(0123,1):  0.00312 x(0,1) + 0.00312 x(1,1) + 0.03943 x(2,1) + 0.03549 x(3,1) >= 1
cut_clique_1(0234,1):  0.03988 x(2,1) + 0.02954 x(3,1) + 0.00443 x(4,1) >= 1
cut_clique_1(1234,1):  0.03988 x(2,1) + 0.02954 x(3,1) + 0.00443 x(4,1) >= 1
cut_clique_1(234,1):  0.03988 x(2,1) + 0.02954 x(3,1) + 0.00443 x(4,1) >= 1
cut_clique_1(01234,2):  0.02105 x(0,2) + 0.03158 x(1,2) + 0.04211 x(2,2) + 0.01053 x(3,2) + 0.02105 x(4,2) >= 1
cut_clique_2(01234,1):  0.00336 x(0,1) + 0.01007 x(1,1) + 0.03559 x(2,1) + 0.03171 x(3,1) + 0.00317 x(4,1) >= 1
cut_clique_2(0234,1):  0.04192 x(2,1) + 0.02994 x(3,1) + 0.00299 x(4,1) >= 1
cut_clique_2(1234,1):  0.04192 x(2,1) + 0.02994 x(3,1) + 0.00299 x(4,1) >= 1
cut_clique_2(234,1):  0.04192 x(2,1) + 0.02994 x(3,1) + 0.00299 x(4,1) >= 1
cut_clique_0:  0.02982 x(2,1) + 0.03313 x(3,1) + 0.00331 x(4,1) + 0.00473 x(1,2) + 0.01420 x(2,2) >= 1
Bounds
 0 <= C <= 71
 2 <= x(0,0) <= 64
 0 <= y(0,1,0) <= 1
 0 <= y(1,0,0) <= 1
 -69 <= v(0,1,0) <= 51
 -60 <= v(1,0,0) <= 60
 -710 <= u(0,1,0)
 -710 <= u(1,0,0)
 0 <= y(0,2,0) <= 1
 0 <= y(2,0,0) <= 1
 -69 <= v(0,2,0) <= 44
 -51 <= v(2,0,0) <= 62
 -710 <= u(0,2,0)
 -710 <= u(2,0,0)
 0 <= y(0,3,0) <= 1
 0 <= y(3,0,0) <= 1
 -58 <= v(0,3,0) <= 58
 -69 <= v(3,0,0) <= 47
 -710 <= u(0,3,0)
 -710 <= u(3,0,0)
 0 <= y(0,4,0) <= 1
 0 <= y(4,0,0) <= 1
 -68 <= v(0,4,0) <= 53
 -66 <= v(4,0,0) <= 55
 -710 <= u(0,4,0)
 -710 <= u(4,0,0)
 9 <= x(1,0) <= 67
 0 <= y(1,2,0) <= 1
 0 <= y(2,1,0) <= 1
 -62 <= v(1,2,0) <= 47
 -53 <= v(2,1,0) <= 56
 -710 <= u(1,2,0)
 -710 <= u(2,1,0)
 0 <= y(1,3,0) <= 1
 0 <= y(3,1,0) <= 1
 -51 <= v(1,3,0) <= 61
 -71 <= v(3,1,0) <= 41
 -710 <= u(1,3,0)
 -710 <= u(3,1,0)
 0 <= y(1,4,0) <= 1
 0 <= y(4,1,0) <= 1
 -61 <= v(1,4,0) <= 56
 -68 <= v(4,1,0) <= 49
 -710 <= u(1,4,0)
 -710 <= u(4,1,0)
 18 <= x(2,0) <= 69
 0 <= y(2,3,0) <= 1
 0 <= y(3,2,0) <= 1
 -42 <= v(2,3,0) <= 63
 -71 <= v(3,2,0) <= 34
 -710 <= u(2,3,0)
 -710 <= u(3,2,0)
 0 <= y(2,4,0) <= 1
 0 <= y(4,2,0) <= 1
 -52 <= v(2,4,0) <= 58
 -68 <= v(4,2,0) <= 42
 -710 <= u(2,4,0)
 -710 <= u(4,2,0)
 0 <= x(3,0) <= 54
 0 <= y(3,4,0) <= 1
 0 <= y(4,3,0) <= 1
 -70 <= v(3,4,0) <= 43
 -57 <= v(4,3,0) <= 56
 -710 <= u(3,4,0)
 -710 <= u(4,3,0)
 3 <= x(4,0) <= 62
 0 <= x(0,1) <= 62
 0 <= y(0,1,1) <= 1
 0 <= y(1,0,1) <= 1
 -64 <= v(0,1,1) <= 56
 -64 <= v(1,0,1) <= 56
 -710 <= u(0,1,1)
 -710 <= u(1,0,1)
 0 <= y(0,2,1) <= 1
 0 <= y(2,0,1) <= 1
 -69 <= v(0,2,1) <= 44
 -55 <= v(2,0,1) <= 58
 -710 <= u(0,2,1)
 -710 <= u(2,0,1)
 0 <= y(0,3,1) <= 1
 0 <= y(3,0,1) <= 1
 -71 <= v(0,3,1) <= 45
 -57 <= v(3,0,1) <= 59
 -710 <= u(0,3,1)
 -710 <= u(3,0,1)
 0 <= y(0,4,1) <= 1
 0 <= y(4,0,1) <= 1
 -71 <= v(0,4,1) <= 50
 -53 <= v(4,0,1) <= 68
 -710 <= u(0,4,1)
 -710 <= u(4,0,1)
 0 <= x(1,1) <= 58
 0 <= y(1,2,1) <= 1
 0 <= y(2,1,1) <= 1
 -69 <= v(1,2,1) <= 40
 -55 <= v(2,1,1) <= 54
 -710 <= u(1,2,1)
 -710 <= u(2,1,1)
 0 <= y(1,3,1) <= 1
 0 <= y(3,1,1) <= 1
 -71 <= v(1,3,1) <= 41
 -57 <= v(3,1,1) <= 55
 -710 <= u(1,3,1)
 -710 <= u(3,1,1)
 0 <= y(1,4,1) <= 1
 0 <= y(4,1,1) <= 1
 -71 <= v(1,4,1) <= 46
 -53 <= v(4,1,1) <= 64
 -710 <= u(1,4,1)
 -710 <= u(4,1,1)
 9 <= x(2,1) <= 60
 0 <= y(2,3,1) <= 1
 0 <= y(3,2,1) <= 1
 -62 <= v(2,3,1) <= 43
 -62 <= v(3,2,1) <= 43
 -710 <= u(2,3,1)
 -710 <= u(3,2,1)
 0 <= y(2,4,1) <= 1
 0 <= y(4,2,1) <= 1
 -62 <= v(2,4,1) <= 48
 -58 <= v(4,2,1) <= 52
 -710 <= u(2,4,1)
 -710 <= u(4,2,1)
 7 <= x(3,1) <= 61
 0 <= y(3,4,1) <= 1
 0 <= y(4,3,1) <= 1
 -64 <= v(3,4,1) <= 49
 -60 <= v(4,3,1) <= 53
 -710 <= u(3,4,1)
 -710 <= u(4,3,1)
 11 <= x(4,1) <= 70
 7 <= x(0,2) <= 69
 0 <= y(0,1,2) <= 1
 0 <= y(1,0,2) <= 1
 -60 <= v(0,1,2) <= 60
 -65 <= v(1,0,2) <= 55
 -710 <= u(0,1,2)
 -710 <= u(1,0,2)
 0 <= y(0,2,2) <= 1
 0 <= y(2,0,2) <= 1
 -53 <= v(0,2,2) <= 60
 -71 <= v(2,0,2) <= 42
 -710 <= u(0,2,2)
 -710 <= u(2,0,2)
 0 <= y(0,3,2) <= 1
 0 <= y(3,0,2) <= 1
 -54 <= v(0,3,2) <= 62
 -65 <= v(3,0,2) <= 51
 -710 <= u(0,3,2)
 -710 <= u(3,0,2)
 0 <= y(0,4,2) <= 1
 0 <= y(4,0,2) <= 1
 -55 <= v(0,4,2) <= 66
 -71 <= v(4,0,2) <= 50
 -710 <= u(0,4,2)
 -710 <= u(4,0,2)
 6 <= x(1,2) <= 64
 0 <= y(1,2,2) <= 1
 0 <= y(2,1,2) <= 1
 -54 <= v(1,2,2) <= 55
 -67 <= v(2,1,2) <= 42
 -710 <= u(1,2,2)
 -710 <= u(2,1,2)
 0 <= y(1,3,2) <= 1
 0 <= y(3,1,2) <= 1
 -55 <= v(1,3,2) <= 57
 -61 <= v(3,1,2) <= 51
 -710 <= u(1,3,2)
 -710 <= u(3,1,2)
 0 <= y(1,4,2) <= 1
 0 <= y(4,1,2) <= 1
 -56 <= v(1,4,2) <= 61
 -67 <= v(4,1,2) <= 50
 -710 <= u(1,4,2)
 -710 <= u(4,1,2)
 0 <= x(2,2) <= 51
 0 <= y(2,3,2) <= 1
 0 <= y(3,2,2) <= 1
 -61 <= v(2,3,2) <= 44
 -54 <= v(3,2,2) <= 51
 -710 <= u(2,3,2)
 -710 <= u(3,2,2)
 0 <= y(2,4,2) <= 1
 0 <= y(4,2,2) <= 1
 -62 <= v(2,4,2) <= 48
 -60 <= v(4,2,2) <= 50
 -710 <= u(2,4,2)
 -710 <= u(4,2,2)
 6 <= x(3,2) <= 60
 0 <= y(3,4,2) <= 1
 0 <= y(4,3,2) <= 1
 -56 <= v(3,4,2) <= 57
 -61 <= v(4,3,2) <= 52
 -710 <= u(3,4,2)
 -710 <= u(4,3,2)
 0 <= x(4,2) <= 59
Integers
C x(0,0) y(0,1,0) y(1,0,0) v(0,1,0) v(1,0,0) u(0,1,0) u(1,0,0) y(0,2,0) y(2,0,0) 
v(0,2,0) v(2,0,0) u(0,2,0) u(2,0,0) y(0,3,0) y(3,0,0) v(0,3,0) v(3,0,0) u(0,3,0) u(3,0,0) 
y(0,4,0) y(4,0,0) v(0,4,0) v(4,0,0) u(0,4,0) u(4,0,0) x(1,0) y(1,2,0) y(2,1,0) v(1,2,0) 
v(2,1,0) u(1,2,0) u(2,1,0) y(1,3,0) y(3,1,0) v(1,3,0) v(3,1,0) u(1,3,0) u(3,1,0) y(1,4,0) 
y(4,1,0) v(1,4,0) v(4,1,0) u(1,4,0) u(4,1,0) x(2,0) y(2,3,0) y(3,2,0) v(2,3,0) v(3,2,0) 
u(2,3,0) u(3,2,0) y(2,4,0) y(4,2,0) v(2,4,0) v(4,2,0) u(2,4,0) u(4,2,0) x(3,0) y(3,4,0) 
y(4,3,0) v(3,4,0) v(4,3,0) u(3,4,0) u(4,3,0) x(4,0) x(0,1) y(0,1,1) y(1,0,1) v(0,1,1) 
v(1,0,1) u(0,1,1) u(1,0,1) y(0,2,1) y(2,0,1) v(0,2,1) v(2,0,1) u(0,2,1) u(2,0,1) y(0,3,1) 
y(3,0,1) v(0,3,1) v(3,0,1) u(0,3,1) u(3,0,1) y(0,4,1) y(4,0,1) v(0,4,1) v(4,0,1) u(0,4,1) 
u(4,0,1) x(1,1) y(1,2,1) y(2,1,1) v(1,2,1) v(2,1,1) u(1,2,1) u(2,1,1) y(1,3,1) y(3,1,1) 
v(1,3,1) v(3,1,1) u(1,3,1) u(3,1,1) y(1,4,1) y(4,1,1) v(1,4,1) v(4,1,1) u(1,4,1) u(4,1,1) 
x(2,1) y(2,3,1) y(3,2,1) v(2,3,1) v(3,2,1) u(2,3,1) u(3,2,1) y(2,4,1) y(4,2,1) v(2,4,1) 
v(4,2,1) u(2,4,1) u(4,2,1) x(3,1) y(3,4,1) y(4,3,1) v(3,4,1) v(4,3,1) u(3,4,1) u(4,3,1) 
x(4,1) x(0,2) y(0,1,2) y(1,0,2) v(0,1,2) v(1,0,2) u(0,1,2) u(1,0,2) y(0,2,2) y(2,0,2) 
v(0,2,2) v(2,0,2) u(0,2,2) u(2,0,2) y(0,3,2) y(3,0,2) v(0,3,2) v(3,0,2) u(0,3,2) u(3,0,2) 
y(0,4,2) y(4,0,2) v(0,4,2) v(4,0,2) u(0,4,2) u(4,0,2) x(1,2) y(1,2,2) y(2,1,2) v(1,2,2) 
v(2,1,2) u(1,2,2) u(2,1,2) y(1,3,2) y(3,1,2) v(1,3,2) v(3,1,2) u(1,3,2) u(3,1,2) y(1,4,2) 
y(4,1,2) v(1,4,2) v(4,1,2) u(1,4,2) u(4,1,2) x(2,2) y(2,3,2) y(3,2,2) v(2,3,2) v(3,2,2) 
u(2,3,2) u(3,2,2) y(2,4,2) y(4,2,2) v(2,4,2) v(4,2,2) u(2,4,2) u(4,2,2) x(3,2) y(3,4,2) 
y(4,3,2) v(3,4,2) v(4,3,2) u(3,4,2) u(4,3,2) x(4,2) 
End
